c FILE /home/rafael/Documents/HappySet/MIHS/inputs/happygen/output/graph_scale_free_k5_p0.5_v100_20241127_083847.txt
c SOURCE This is a scale-free graph formed for the happy graph colouring problem.
c DESCRIPTION It was generated using the problem generator of Rhyd Lewis
c
c GRAPH STATS
c Seed                             = -91020112
c Number of Nodes                  = 100
c Number of colours k              = 5
c Number of pre-assignments        = 50
c Number of links per new node     = 5
c Density                          = 0.0979798
c 
c The degrees of nodes 1 to 100, respectively, are as follows 
c [40, 37, 35, 29, 29, 23, 22, 22, 17, 16, 15, 15, 15, 14, 12, 12, 11, 11, 11, 11, 11, 11, 11, 11, 11, 10, 
c  10, 10, 10, 10, 10, 9, 9, 9, 9, 9, 9, 9, 9, 9, 9, 9, 8, 8, 8, 8, 8, 8, 8, 8, 8, 
c  8, 7, 7, 7, 7, 7, 7, 7, 7, 7, 7, 7, 7, 6, 6, 6, 6, 6, 6, 6, 6, 6, 6, 6, 6, 
c  6, 6, 6, 5, 5, 5, 5, 5, 5, 5, 5, 5, 5, 5, 5, 5, 5, 5, 5, 5, 5, 5, 5, 5] 
c  
p edge 100 485 5
e 1 2
e 1 3
e 1 4
e 1 5
e 1 6
e 1 7
e 1 9
e 1 11
e 1 15
e 1 17
e 1 18
e 1 21
e 1 23
e 1 26
e 1 27
e 1 29
e 1 30
e 1 32
e 1 33
e 1 34
e 1 36
e 1 39
e 1 43
e 1 45
e 1 46
e 1 47
e 1 51
e 1 54
e 1 58
e 1 59
e 1 60
e 1 61
e 1 62
e 1 65
e 1 68
e 1 73
e 1 80
e 1 82
e 1 84
e 1 89
e 2 3
e 2 4
e 2 5
e 2 6
e 2 7
e 2 8
e 2 9
e 2 11
e 2 12
e 2 13
e 2 14
e 2 15
e 2 16
e 2 17
e 2 18
e 2 26
e 2 27
e 2 30
e 2 32
e 2 33
e 2 37
e 2 40
e 2 44
e 2 47
e 2 52
e 2 63
e 2 64
e 2 70
e 2 71
e 2 72
e 2 75
e 2 81
e 2 82
e 2 93
e 2 94
e 2 95
e 3 4
e 3 5
e 3 6
e 3 7
e 3 8
e 3 11
e 3 15
e 3 16
e 3 20
e 3 25
e 3 26
e 3 27
e 3 28
e 3 29
e 3 30
e 3 32
e 3 34
e 3 35
e 3 37
e 3 41
e 3 44
e 3 47
e 3 49
e 3 51
e 3 53
e 3 57
e 3 60
e 3 69
e 3 70
e 3 83
e 3 88
e 3 94
e 3 95
e 4 5
e 4 6
e 4 7
e 4 11
e 4 14
e 4 15
e 4 16
e 4 17
e 4 19
e 4 26
e 4 27
e 4 33
e 4 36
e 4 38
e 4 40
e 4 45
e 4 47
e 4 48
e 4 52
e 4 58
e 4 63
e 4 65
e 4 78
e 4 85
e 4 91
e 4 97
e 5 6
e 5 7
e 5 8
e 5 12
e 5 14
e 5 17
e 5 18
e 5 19
e 5 20
e 5 21
e 5 32
e 5 35
e 5 36
e 5 41
e 5 42
e 5 43
e 5 52
e 5 53
e 5 54
e 5 57
e 5 66
e 5 68
e 5 69
e 5 88
e 5 92
e 6 8
e 6 9
e 6 13
e 6 15
e 6 16
e 6 17
e 6 20
e 6 21
e 6 23
e 6 24
e 6 26
e 6 40
e 6 43
e 6 64
e 6 75
e 6 80
e 6 84
e 6 89
e 7 8
e 7 9
e 7 11
e 7 18
e 7 19
e 7 21
e 7 22
e 7 23
e 7 24
e 7 37
e 7 46
e 7 55
e 7 61
e 7 65
e 7 69
e 7 77
e 7 78
e 8 13
e 8 19
e 8 20
e 8 31
e 8 33
e 8 35
e 8 41
e 8 46
e 8 51
e 8 53
e 8 56
e 8 60
e 8 67
e 8 70
e 8 72
e 8 75
e 8 81
e 9 10
e 9 13
e 9 20
e 9 21
e 9 25
e 9 26
e 9 28
e 9 29
e 9 38
e 9 44
e 9 56
e 9 84
e 9 87
e 10 11
e 10 15
e 10 17
e 10 23
e 10 25
e 10 32
e 10 38
e 10 46
e 10 49
e 10 51
e 10 58
e 10 77
e 10 86
e 10 87
e 10 99
e 11 12
e 11 14
e 11 32
e 11 34
e 11 58
e 11 60
e 11 66
e 11 74
e 11 98
e 12 13
e 12 15
e 12 19
e 12 22
e 12 25
e 12 29
e 12 36
e 12 43
e 12 62
e 12 66
e 12 86
e 12 99
e 13 25
e 13 30
e 13 37
e 13 38
e 13 39
e 13 48
e 13 49
e 13 56
e 13 76
e 13 77
e 14 16
e 14 24
e 14 33
e 14 36
e 14 45
e 14 58
e 14 67
e 14 71
e 14 92
e 14 94
e 15 22
e 15 28
e 15 31
e 15 81
e 15 91
e 16 22
e 16 27
e 16 34
e 16 45
e 16 48
e 16 72
e 16 83
e 17 19
e 17 35
e 17 59
e 17 67
e 17 73
e 18 28
e 18 32
e 18 35
e 18 42
e 18 47
e 18 53
e 18 92
e 19 33
e 19 39
e 19 48
e 19 65
e 19 76
e 20 49
e 20 50
e 20 61
e 20 65
e 20 67
e 20 86
e 21 44
e 21 50
e 21 66
e 21 70
e 21 80
e 21 83
e 22 28
e 22 42
e 22 46
e 22 51
e 22 52
e 22 82
e 22 88
e 23 26
e 23 31
e 23 40
e 23 57
e 23 71
e 23 91
e 23 93
e 24 33
e 24 41
e 24 57
e 24 68
e 24 72
e 24 80
e 24 89
e 24 94
e 25 60
e 25 69
e 25 71
e 25 72
e 25 76
e 25 96
e 26 34
e 26 39
e 26 100
e 27 37
e 27 44
e 27 93
e 27 96
e 27 99
e 28 36
e 28 39
e 28 55
e 28 59
e 28 93
e 29 36
e 29 54
e 29 64
e 29 67
e 29 81
e 29 92
e 30 37
e 30 45
e 30 50
e 30 66
e 30 89
e 30 99
e 31 41
e 31 45
e 31 55
e 31 68
e 31 69
e 31 73
e 31 90
e 32 74
e 32 98
e 33 41
e 33 53
e 34 40
e 34 54
e 34 79
e 34 85
e 35 49
e 35 50
e 35 81
e 35 86
e 36 83
e 36 85
e 37 74
e 37 82
e 37 90
e 38 43
e 38 53
e 38 55
e 38 61
e 38 75
e 39 68
e 39 79
e 39 80
e 39 98
e 40 48
e 40 50
e 40 76
e 40 77
e 41 43
e 41 76
e 41 96
e 42 52
e 42 58
e 42 63
e 42 64
e 42 73
e 42 78
e 43 86
e 43 96
e 44 54
e 44 56
e 44 59
e 45 85
e 45 92
e 46 56
e 46 90
e 46 93
e 47 52
e 47 63
e 47 83
e 48 59
e 48 84
e 48 97
e 49 70
e 49 90
e 49 100
e 50 62
e 50 79
e 50 88
e 51 62
e 51 71
e 51 95
e 52 61
e 52 78
e 53 79
e 54 73
e 54 78
e 55 65
e 55 87
e 55 98
e 56 57
e 56 82
e 57 79
e 57 100
e 58 100
e 59 63
e 59 77
e 60 74
e 60 75
e 61 88
e 61 97
e 62 70
e 62 74
e 62 89
e 63 64
e 63 95
e 64 94
e 64 96
e 66 90
e 67 91
e 68 85
e 69 95
e 71 84
e 72 99
e 73 87
e 74 97
e 75 91
e 76 98
e 77 87
e 78 100
e 79 97
n 10 2
n 11 2
n 13 4
n 15 2
n 16 3
n 19 5
n 23 2
n 26 2
n 29 1
n 32 2
n 35 2
n 37 4
n 40 2
n 41 4
n 42 1
n 44 1
n 46 2
n 47 1
n 50 2
n 53 4
n 54 1
n 57 2
n 59 1
n 60 2
n 61 2
n 62 2
n 65 5
n 66 2
n 68 3
n 69 5
n 71 2
n 72 3
n 73 1
n 75 2
n 80 1
n 82 4
n 84 2
n 85 3
n 86 2
n 88 2
n 89 2
n 91 2
n 92 1
n 93 2
n 94 1
n 95 5
n 96 4
n 97 2
n 98 2
n 100 2
